p cnf 19 56
-11 -12 -17 0
-3 -8 -13 0
-3 -4 8 0
5 -6 17 0
7 -10 16 0
-6 -9 -14 0
7 8 16 0
-5 12 14 0
-1 4 -8 0
-1 -2 -9 0
-1 12 -18 0
-2 -10 13 0
3 -15 16 0
3 -8 -13 0
-2 -11 -16 0
1 -6 -11 0
7 -9 13 0
2 8 18 0
14 15 18 0
-10 13 18 0
-3 6 -9 0
-1 -3 -19 0
-6 7 -11 0
2 4 11 0
7 -15 18 0
-4 -15 19 0
1 -2 -18 0
5 15 -18 0
-12 15 -18 0
-7 9 -11 0
1 -5 12 0
-4 5 -19 0
-3 17 18 0
10 -11 12 0
-15 17 -19 0
9 -12 14 0
-1 -7 -14 0
-6 -7 19 0
-6 -7 17 0
2 -4 -18 0
13 -15 -18 0
2 3 15 0
-6 -14 18 0
-7 -11 -16 0
-4 -10 16 0
2 15 -19 0
3 -6 8 0
-10 -14 -16 0
2 -8 19 0
4 8 -16 0
-4 11 15 0
-1 12 14 0
-3 -14 -17 0
-8 -9 13 0
-2 13 -14 0
-1 4 6 0
